v1 = 5;
v2 = 5;
vertexWeights = [-45, -45, -45, -45, -45, -45, -90, -90, -90, -90, -90, -45, -90, -90, -5.830951894845301, -90, -90, -45, -90, -90, -90, -90, -90, -45, -90, -90, -90, -34.44198019858905, -90, -45, -90, -90, -33.24154027718932, -90, -90];
edgeWeights = [| 0, -7.5, 0, 0, 0, 0, 0, -7.5, 0, 0, 0, 0, 0, -7.5, 0, 0, 0, 0, 0, -7.5, 0, 0, 0, 0, 0, -7.5, 0, 0, 0, 0, 0, -7.5, 0, 0, 0
| -7.5, 0, -7.5, 0, 0, 0, -7.5, 0, -7.5, 0, 0, 0, -7.5, 0, -7.5, 0, 0, 0, -7.5, 0, -7.5, 0, 0, 0, -7.5, 0, -7.5, 0, 0, 0, -7.5, 0, -7.5, 0, 0
| 0, -7.5, 0, 0, -7.5, 0, 0, -7.5, 0, 0, -7.5, 0, 0, -7.5, 0, 0, -7.5, 0, 0, -7.5, 0, 0, -7.5, 0, 0, -7.5, 0, 0, -7.5, 0, 0, -7.5, 0, 0, -7.5
| 0, 0, 0, 0, 0, 0, 0, 0, 0, 0, 0, 0, 0, 0, 0, 0, 0, 0, 0, 0, 0, 0, 0, 0, 0, 0, 0, 0, 0, 0, 0, 0, 0, 0, 0
| 0, 0, -7.5, 0, 0, 0, 0, 0, -7.5, 0, 0, 0, 0, 0, -7.5, 0, 0, 0, 0, 0, -7.5, 0, 0, 0, 0, 0, -7.5, 0, 0, 0, 0, 0, -7.5, 0, 0
| 0, 0, 0, 0, 0, 0, 0, 0, 0, 0, 0, 0, 0, 0, 0, 0, 0, 0, 0, 0, 0, 0, 0, 0, 0, 0, 0, 0, 0, -15.0, -15.0, -15.0, -15.0, -15.0, -15.0
| 0, -7.5, -0.0, -0.0, -0.0, 0, 0, 0, 0, 0, 0, -0.0, 0, -7.5, 0, 0, 0, -0.0, 0, -7.5, 0, 0, 0, -0.0, 0, -7.5, 0, 0, 0, -15.0, 0, -7.5, -0.0, -0.0, -15.0
| -7.5, 0, -7.5, -0.0, -0.0, 0, 0, 0, 0, 0, 0, -0.0, -7.5, 0, -7.5, 0, 0, -0.0, -7.5, 0, -7.5, 0, 0, -0.0, -7.5, 0, -7.5, 0, 0, -15.0, -7.5, 0, -7.5, -0.0, -15.0
| -0.0, -7.5, 0, -0.0, -7.5, 0, 0, 0, 0, 0, 0, -0.0, 0, -7.5, 0, 0, -7.5, -0.0, 0, -7.5, 0, 0, -7.5, -0.0, 0, -7.5, 0, 0, -7.5, -15.0, -0.0, -7.5, 0, -0.0, -7.5
| -0.0, -0.0, -0.0, 0, -0.0, 0, 0, 0, 0, 0, 0, -0.0, 0, 0, 0, 0, 0, -0.0, 0, 0, 0, 0, 0, -0.0, 0, 0, 0, 0, 0, -15.0, -0.0, -0.0, -0.0, 0, -15.0
| -0.0, -0.0, -7.5, -0.0, 0, 0, 0, 0, 0, 0, 0, -0.0, 0, 0, -7.5, 0, 0, -0.0, 0, 0, -7.5, 0, 0, -0.0, 0, 0, -7.5, 0, 0, -15.0, -0.0, -0.0, -7.5, -0.0, 0
| 0, 0, 0, 0, 0, 0, 0, 0, 0, 0, 0, 0, 0, 0, 0, 0, 0, -15.0, -15.0, -15.0, -15.0, -15.0, -15.0, 0, 0, 0, 0, 0, 0, 0, 0, 0, 0, 0, 0
| 0, -7.5, -0.0, -0.0, -0.0, -0.0, 0, -7.5, 0, 0, 0, 0, 0, 0, 0, 0, 0, -15.0, 0, -7.5, -15.0, -0.0, -0.0, -0.0, 0, -7.5, 0, 0, 0, -0.0, 0, -7.5, 0, 0, 0
| -7.5, 0, -7.5, -0.0, -0.0, -0.0, -7.5, 0, -7.5, 0, 0, 0, 0, 0, 0, 0, 0, -15.0, -7.5, 0, -7.5, -0.0, -0.0, -0.0, -7.5, 0, -7.5, 0, 0, -0.0, -7.5, 0, -7.5, 0, 0
| -0.0, -7.5, 0, -0.0, -7.5, -0.0, 0, -7.5, 0, 0, -7.5, 0, 0, 0, 0, 0, 0, -15.0, -0.0, -7.5, 0, -0.0, -7.5, -0.0, 0, -7.5, 0, 0, -7.5, -0.0, 0, -7.5, 0, 0, -7.5
| -0.0, -0.0, -0.0, 0, -0.0, -0.0, 0, 0, 0, 0, 0, 0, 0, 0, 0, 0, 0, -15.0, -0.0, -0.0, -15.0, 0, -0.0, -0.0, 0, 0, 0, 0, 0, -0.0, 0, 0, 0, 0, 0
| -0.0, -0.0, -7.5, -0.0, 0, -0.0, 0, 0, -7.5, 0, 0, 0, 0, 0, 0, 0, 0, -15.0, -0.0, -0.0, -7.5, -0.0, 0, -0.0, 0, 0, -7.5, 0, 0, -0.0, 0, 0, -7.5, 0, 0
| 0, 0, 0, 0, 0, 0, 0, 0, 0, 0, 0, -15.0, -15.0, -15.0, -15.0, -15.0, -15.0, 0, 0, 0, 0, 0, 0, 0, 0, 0, 0, 0, 0, 0, 0, 0, 0, 0, 0
| 0, -7.5, -0.0, -0.0, -0.0, -0.0, 0, -7.5, 0, 0, 0, -15.0, 0, -7.5, -0.0, -0.0, -0.0, 0, 0, 0, 0, 0, 0, -0.0, 0, -7.5, 0, 0, 0, -0.0, 0, -7.5, 0, 0, 0
| -7.5, 0, -7.5, -0.0, -0.0, -0.0, -7.5, 0, -7.5, 0, 0, -15.0, -7.5, 0, -7.5, -0.0, -0.0, 0, 0, 0, 0, 0, 0, -0.0, -7.5, 0, -7.5, 0, 0, -0.0, -7.5, 0, -7.5, 0, 0
| -0.0, -7.5, 0, -0.0, -7.5, -0.0, 0, -7.5, 0, 0, -7.5, -15.0, -0.0, -7.5, 0, -0.0, -7.5, 0, 0, 0, 0, 0, 0, -0.0, 0, -7.5, 0, 0, -7.5, -0.0, 0, -7.5, 0, 0, -7.5
| -0.0, -0.0, -0.0, 0, -0.0, -0.0, 0, 0, 0, 0, 0, -15.0, -0.0, -15.0, -0.0, 0, -0.0, 0, 0, 0, 0, 0, 0, -0.0, 0, 0, 0, 0, 0, -0.0, 0, 0, 0, 0, 0
| -0.0, -0.0, -7.5, -0.0, 0, -0.0, 0, 0, -7.5, 0, 0, -15.0, -0.0, -15.0, -7.5, -0.0, 0, 0, 0, 0, 0, 0, 0, -0.0, 0, 0, -7.5, 0, 0, -0.0, 0, 0, -7.5, 0, 0
| 0, 0, 0, 0, 0, 0, 0, 0, 0, 0, 0, 0, 0, 0, 0, 0, 0, 0, 0, 0, 0, 0, 0, 0, 0, 0, 0, 0, 0, 0, 0, 0, 0, 0, 0
| 0, -7.5, -0.0, -0.0, -0.0, -0.0, 0, -7.5, 0, 0, 0, -0.0, 0, -7.5, 0, 0, 0, -0.0, 0, -7.5, 0, 0, 0, 0, 0, 0, 0, 0, 0, -0.0, 0, -7.5, 0, 0, 0
| -7.5, 0, -7.5, -0.0, -0.0, -0.0, -7.5, 0, -7.5, 0, 0, -0.0, -7.5, 0, -7.5, 0, 0, -0.0, -7.5, 0, -7.5, 0, 0, 0, 0, 0, 0, 0, 0, -0.0, -7.5, 0, -7.5, 0, 0
| -0.0, -7.5, 0, -0.0, -7.5, -0.0, 0, -7.5, 0, 0, -7.5, -0.0, 0, -7.5, 0, 0, -7.5, -0.0, 0, -7.5, 0, 0, -7.5, 0, 0, 0, 0, 0, 0, -0.0, 0, -7.5, 0, 0, -7.5
| -0.0, -0.0, -0.0, 0, -0.0, -0.0, 0, 0, 0, 0, 0, -0.0, 0, 0, 0, 0, 0, -0.0, 0, 0, 0, 0, 0, 0, 0, 0, 0, 0, 0, -0.0, 0, 0, 0, 0, 0
| -0.0, -0.0, -7.5, -0.0, 0, -0.0, 0, 0, -7.5, 0, 0, -0.0, 0, 0, -7.5, 0, 0, -0.0, 0, 0, -7.5, 0, 0, 0, 0, 0, 0, 0, 0, -0.0, 0, 0, -7.5, 0, 0
| 0, 0, 0, 0, 0, -15.0, -15.0, -15.0, -15.0, -15.0, -15.0, 0, 0, 0, 0, 0, 0, 0, 0, 0, 0, 0, 0, 0, 0, 0, 0, 0, 0, 0, 0, 0, 0, 0, 0
| 0, -7.5, -0.0, -0.0, -0.0, -15.0, 0, -7.5, -0.0, -0.0, -0.0, -0.0, 0, -7.5, 0, 0, 0, -0.0, 0, -7.5, 0, 0, 0, -0.0, 0, -7.5, 0, 0, 0, 0, 0, 0, 0, 0, 0
| -7.5, 0, -7.5, -0.0, -0.0, -15.0, -7.5, 0, -7.5, -0.0, -0.0, -0.0, -7.5, 0, -7.5, 0, 0, -0.0, -7.5, 0, -7.5, 0, 0, -0.0, -7.5, 0, -7.5, 0, 0, 0, 0, 0, 0, 0, 0
| -0.0, -7.5, 0, -0.0, -7.5, -15.0, -15.0, -7.5, 0, -0.0, -7.5, -0.0, 0, -7.5, 0, 0, -7.5, -0.0, 0, -7.5, 0, 0, -7.5, -0.0, 0, -7.5, 0, 0, -7.5, 0, 0, 0, 0, 0, 0
| -0.0, -0.0, -0.0, 0, -0.0, -15.0, -15.0, -0.0, -0.0, 0, -0.0, -0.0, 0, 0, 0, 0, 0, -0.0, 0, 0, 0, 0, 0, -0.0, 0, 0, 0, 0, 0, 0, 0, 0, 0, 0, 0
| -0.0, -0.0, -7.5, -0.0, 0, -15.0, -15.0, -0.0, -7.5, -0.0, 0, -0.0, 0, 0, -7.5, 0, 0, -0.0, 0, 0, -7.5, 0, 0, -0.0, 0, 0, -7.5, 0, 0, 0, 0, 0, 0, 0, 0 |];
adjacent = [| 0, 1, 1, 1, 1, 1, 0, 1, 1, 1, 1, 1, 0, 1, 1, 1, 1, 1, 0, 1, 1, 1, 1, 1, 0, 1, 1, 1, 1, 1, 0, 1, 1, 1, 1
| 1, 0, 1, 1, 1, 1, 1, 0, 1, 1, 1, 1, 1, 0, 1, 1, 1, 1, 1, 0, 1, 1, 1, 1, 1, 0, 1, 1, 1, 1, 1, 0, 1, 1, 1
| 1, 1, 0, 1, 1, 1, 1, 1, 0, 1, 1, 1, 1, 1, 0, 1, 1, 1, 1, 1, 0, 1, 1, 1, 1, 1, 0, 1, 1, 1, 1, 1, 0, 1, 1
| 1, 1, 1, 0, 1, 1, 1, 1, 1, 0, 1, 1, 1, 1, 1, 0, 1, 1, 1, 1, 1, 0, 1, 1, 1, 1, 1, 0, 1, 1, 1, 1, 1, 0, 1
| 1, 1, 1, 1, 0, 1, 1, 1, 1, 1, 0, 1, 1, 1, 1, 1, 0, 1, 1, 1, 1, 1, 0, 1, 1, 1, 1, 1, 0, 1, 1, 1, 1, 1, 0
| 1, 1, 1, 1, 1, 0, 0, 0, 0, 0, 0, 1, 1, 1, 1, 1, 1, 1, 1, 1, 1, 1, 1, 1, 1, 1, 1, 1, 1, 1, 1, 1, 1, 1, 1
| 0, 1, 1, 1, 1, 0, 0, 0, 0, 0, 0, 1, 0, 1, 1, 1, 1, 1, 0, 1, 1, 1, 1, 1, 0, 1, 1, 1, 1, 1, 0, 1, 1, 1, 1
| 1, 0, 1, 1, 1, 0, 0, 0, 0, 0, 0, 1, 1, 0, 1, 1, 1, 1, 1, 0, 1, 1, 1, 1, 1, 0, 1, 1, 1, 1, 1, 0, 1, 1, 1
| 1, 1, 0, 1, 1, 0, 0, 0, 0, 0, 0, 1, 1, 1, 0, 1, 1, 1, 1, 1, 0, 1, 1, 1, 1, 1, 0, 1, 1, 1, 1, 1, 0, 1, 1
| 1, 1, 1, 0, 1, 0, 0, 0, 0, 0, 0, 1, 1, 1, 1, 0, 1, 1, 1, 1, 1, 0, 1, 1, 1, 1, 1, 0, 1, 1, 1, 1, 1, 0, 1
| 1, 1, 1, 1, 0, 0, 0, 0, 0, 0, 0, 1, 1, 1, 1, 1, 0, 1, 1, 1, 1, 1, 0, 1, 1, 1, 1, 1, 0, 1, 1, 1, 1, 1, 0
| 1, 1, 1, 1, 1, 1, 1, 1, 1, 1, 1, 0, 0, 0, 0, 0, 0, 1, 1, 1, 1, 1, 1, 1, 1, 1, 1, 1, 1, 1, 1, 1, 1, 1, 1
| 0, 1, 1, 1, 1, 1, 0, 1, 1, 1, 1, 0, 0, 0, 0, 0, 0, 1, 0, 1, 1, 1, 1, 1, 0, 1, 1, 1, 1, 1, 0, 1, 1, 1, 1
| 1, 0, 1, 1, 1, 1, 1, 0, 1, 1, 1, 0, 0, 0, 0, 0, 0, 1, 1, 0, 1, 1, 1, 1, 1, 0, 1, 1, 1, 1, 1, 0, 1, 1, 1
| 1, 1, 0, 1, 1, 1, 1, 1, 0, 1, 1, 0, 0, 0, 0, 0, 0, 1, 1, 1, 0, 1, 1, 1, 1, 1, 0, 1, 1, 1, 1, 1, 0, 1, 1
| 1, 1, 1, 0, 1, 1, 1, 1, 1, 0, 1, 0, 0, 0, 0, 0, 0, 1, 1, 1, 1, 0, 1, 1, 1, 1, 1, 0, 1, 1, 1, 1, 1, 0, 1
| 1, 1, 1, 1, 0, 1, 1, 1, 1, 1, 0, 0, 0, 0, 0, 0, 0, 1, 1, 1, 1, 1, 0, 1, 1, 1, 1, 1, 0, 1, 1, 1, 1, 1, 0
| 1, 1, 1, 1, 1, 1, 1, 1, 1, 1, 1, 1, 1, 1, 1, 1, 1, 0, 0, 0, 0, 0, 0, 1, 1, 1, 1, 1, 1, 1, 1, 1, 1, 1, 1
| 0, 1, 1, 1, 1, 1, 0, 1, 1, 1, 1, 1, 0, 1, 1, 1, 1, 0, 0, 0, 0, 0, 0, 1, 0, 1, 1, 1, 1, 1, 0, 1, 1, 1, 1
| 1, 0, 1, 1, 1, 1, 1, 0, 1, 1, 1, 1, 1, 0, 1, 1, 1, 0, 0, 0, 0, 0, 0, 1, 1, 0, 1, 1, 1, 1, 1, 0, 1, 1, 1
| 1, 1, 0, 1, 1, 1, 1, 1, 0, 1, 1, 1, 1, 1, 0, 1, 1, 0, 0, 0, 0, 0, 0, 1, 1, 1, 0, 1, 1, 1, 1, 1, 0, 1, 1
| 1, 1, 1, 0, 1, 1, 1, 1, 1, 0, 1, 1, 1, 1, 1, 0, 1, 0, 0, 0, 0, 0, 0, 1, 1, 1, 1, 0, 1, 1, 1, 1, 1, 0, 1
| 1, 1, 1, 1, 0, 1, 1, 1, 1, 1, 0, 1, 1, 1, 1, 1, 0, 0, 0, 0, 0, 0, 0, 1, 1, 1, 1, 1, 0, 1, 1, 1, 1, 1, 0
| 1, 1, 1, 1, 1, 1, 1, 1, 1, 1, 1, 1, 1, 1, 1, 1, 1, 1, 1, 1, 1, 1, 1, 0, 0, 0, 0, 0, 0, 1, 1, 1, 1, 1, 1
| 0, 1, 1, 1, 1, 1, 0, 1, 1, 1, 1, 1, 0, 1, 1, 1, 1, 1, 0, 1, 1, 1, 1, 0, 0, 0, 0, 0, 0, 1, 0, 1, 1, 1, 1
| 1, 0, 1, 1, 1, 1, 1, 0, 1, 1, 1, 1, 1, 0, 1, 1, 1, 1, 1, 0, 1, 1, 1, 0, 0, 0, 0, 0, 0, 1, 1, 0, 1, 1, 1
| 1, 1, 0, 1, 1, 1, 1, 1, 0, 1, 1, 1, 1, 1, 0, 1, 1, 1, 1, 1, 0, 1, 1, 0, 0, 0, 0, 0, 0, 1, 1, 1, 0, 1, 1
| 1, 1, 1, 0, 1, 1, 1, 1, 1, 0, 1, 1, 1, 1, 1, 0, 1, 1, 1, 1, 1, 0, 1, 0, 0, 0, 0, 0, 0, 1, 1, 1, 1, 0, 1
| 1, 1, 1, 1, 0, 1, 1, 1, 1, 1, 0, 1, 1, 1, 1, 1, 0, 1, 1, 1, 1, 1, 0, 0, 0, 0, 0, 0, 0, 1, 1, 1, 1, 1, 0
| 1, 1, 1, 1, 1, 1, 1, 1, 1, 1, 1, 1, 1, 1, 1, 1, 1, 1, 1, 1, 1, 1, 1, 1, 1, 1, 1, 1, 1, 0, 0, 0, 0, 0, 0
| 0, 1, 1, 1, 1, 1, 0, 1, 1, 1, 1, 1, 0, 1, 1, 1, 1, 1, 0, 1, 1, 1, 1, 1, 0, 1, 1, 1, 1, 0, 0, 0, 0, 0, 0
| 1, 0, 1, 1, 1, 1, 1, 0, 1, 1, 1, 1, 1, 0, 1, 1, 1, 1, 1, 0, 1, 1, 1, 1, 1, 0, 1, 1, 1, 0, 0, 0, 0, 0, 0
| 1, 1, 0, 1, 1, 1, 1, 1, 0, 1, 1, 1, 1, 1, 0, 1, 1, 1, 1, 1, 0, 1, 1, 1, 1, 1, 0, 1, 1, 0, 0, 0, 0, 0, 0
| 1, 1, 1, 0, 1, 1, 1, 1, 1, 0, 1, 1, 1, 1, 1, 0, 1, 1, 1, 1, 1, 0, 1, 1, 1, 1, 1, 0, 1, 0, 0, 0, 0, 0, 0
| 1, 1, 1, 1, 0, 1, 1, 1, 1, 1, 0, 1, 1, 1, 1, 1, 0, 1, 1, 1, 1, 1, 0, 1, 1, 1, 1, 1, 0, 0, 0, 0, 0, 0, 0 |];
